p cnf 474
-8 -148
-9 -151
-10 -154
-11 -157
-12 -160
-13 -163
-14 -166
-15 167
-16 168
-17 169
-18 170
-19 -9
-19 -10
9 10 19
-20 -11
-20 -12
11 12 20
-21 -13
-21 -14
13 14 21
-22 -15
-22 -16
15 16 22
-23 -17
-23 -18
17 18 23
-24 19
-24 20
-19 -20 24
-25 21
-25 22
-21 -22 25
-26 24
-26 25
-24 -25 26
-27 23
-27 26
-23 -26 27
-28 -8
-28 9
8 -9 28
-29 8
-29 -9
-8 9 29
-30 -28
-30 -29
28 29 30
-31 8
-31 9
-8 -9 31
-32 -8
-32 -30
8 30 32
-33 8
-33 30
-8 -30 33
-34 -32
-34 -33
32 33 34
-35 8
-35 -30
-8 30 35
-36 -31
-36 -35
31 35 36
-37 -9
-37 10
9 -10 37
-38 9
-38 -10
-9 10 38
-39 -37
-39 -38
37 38 39
-40 9
-40 10
-9 -10 40
-41 36
-41 -39
-36 39 41
-42 -36
-42 39
36 -39 42
-43 -41
-43 -42
41 42 43
-44 -36
-44 -39
36 39 44
-45 -40
-45 -44
40 44 45
-46 -10
-46 11
10 -11 46
-47 10
-47 -11
-10 11 47
-48 -46
-48 -47
46 47 48
-49 10
-49 11
-10 -11 49
-50 45
-50 -48
-45 48 50
-51 -45
-51 48
45 -48 51
-52 -50
-52 -51
50 51 52
-53 -45
-53 -48
45 48 53
-54 -49
-54 -53
49 53 54
-55 -11
-55 12
11 -12 55
-56 11
-56 -12
-11 12 56
-57 -55
-57 -56
55 56 57
-58 11
-58 12
-11 -12 58
-59 54
-59 -57
-54 57 59
-60 -54
-60 57
54 -57 60
-61 -59
-61 -60
59 60 61
-62 -54
-62 -57
54 57 62
-63 -58
-63 -62
58 62 63
-64 -12
-64 13
12 -13 64
-65 12
-65 -13
-12 13 65
-66 -64
-66 -65
64 65 66
-67 12
-67 13
-12 -13 67
-68 63
-68 -66
-63 66 68
-69 -63
-69 66
63 -66 69
-70 -68
-70 -69
68 69 70
-71 -63
-71 -66
63 66 71
-72 -67
-72 -71
67 71 72
-73 -13
-73 14
13 -14 73
-74 13
-74 -14
-13 14 74
-75 -73
-75 -74
73 74 75
-76 13
-76 14
-13 -14 76
-77 72
-77 -75
-72 75 77
-78 -72
-78 75
72 -75 78
-79 -77
-79 -78
77 78 79
-80 -72
-80 -75
72 75 80
-81 -76
-81 -80
76 80 81
-82 -14
-82 15
14 -15 82
-83 14
-83 -15
-14 15 83
-84 -82
-84 -83
82 83 84
-85 14
-85 15
-14 -15 85
-86 81
-86 -84
-81 84 86
-87 -81
-87 84
81 -84 87
-88 -86
-88 -87
86 87 88
-89 -81
-89 -84
81 84 89
-90 -85
-90 -89
85 89 90
-91 -15
-91 16
15 -16 91
-92 15
-92 -16
-15 16 92
-93 -91
-93 -92
91 92 93
-94 15
-94 16
-15 -16 94
-95 90
-95 -93
-90 93 95
-96 -90
-96 93
90 -93 96
-97 -95
-97 -96
95 96 97
-98 -90
-98 -93
90 93 98
-99 -94
-99 -98
94 98 99
-100 -16
-100 17
16 -17 100
-101 16
-101 -17
-16 17 101
-102 -100
-102 -101
100 101 102
-103 16
-103 17
-16 -17 103
-104 99
-104 -102
-99 102 104
-105 -99
-105 102
99 -102 105
-106 -104
-106 -105
104 105 106
-107 -99
-107 -102
99 102 107
-108 -103
-108 -107
103 107 108
-109 -17
-109 18
17 -18 109
-110 17
-110 -18
-17 18 110
-111 -109
-111 -110
109 110 111
-112 17
-112 18
-17 -18 112
-113 108
-113 -111
-108 111 113
-114 -108
-114 111
108 -111 114
-115 -113
-115 -114
113 114 115
-116 -108
-116 -111
108 111 116
-117 -112
-117 -116
112 116 117
-118 8
-118 -34
-8 34 118
-119 -8
-119 10
8 -10 119
-120 -118
-120 -119
118 119 120
-121 8
-121 -43
-8 43 121
-122 -8
-122 11
8 -11 122
-123 -121
-123 -122
121 122 123
-124 8
-124 -52
-8 52 124
-125 -8
-125 12
8 -12 125
-126 -124
-126 -125
124 125 126
-127 8
-127 -61
-8 61 127
-128 -8
-128 13
8 -13 128
-129 -127
-129 -128
127 128 129
-130 8
-130 -70
-8 70 130
-131 -8
-131 14
8 -14 131
-132 -130
-132 -131
130 131 132
-133 8
-133 -79
-8 79 133
-134 -8
-134 15
8 -15 134
-135 -133
-135 -134
133 134 135
-136 8
-136 -88
-8 88 136
-137 -8
-137 16
8 -16 137
-138 -136
-138 -137
136 137 138
-139 8
-139 -97
-8 97 139
-140 -8
-140 17
8 -17 140
-141 -139
-141 -140
139 140 141
-142 8
-142 -106
-8 106 142
-143 -8
-143 18
8 -18 143
-144 -142
-144 -143
142 143 144
-145 8
-145 -115
-8 115 145
-146 1
-146 27
-1 -27 146
-147 -27
-147 28
27 -28 147
-148 -146
-148 -147
146 147 148
-149 2
-149 27
-2 -27 149
-150 -27
-150 -120
27 120 150
-151 -149
-151 -150
149 150 151
-152 3
-152 27
-3 -27 152
-153 -27
-153 -123
27 123 153
-154 -152
-154 -153
152 153 154
-155 4
-155 27
-4 -27 155
-156 -27
-156 -126
27 126 156
-157 -155
-157 -156
155 156 157
-158 5
-158 27
-5 -27 158
-159 -27
-159 -129
27 129 159
-160 -158
-160 -159
158 159 160
-161 6
-161 27
-6 -27 161
-162 -27
-162 -132
27 132 162
-163 -161
-163 -162
161 162 163
-164 7
-164 27
-7 -27 164
-165 -27
-165 -135
27 135 165
-166 -164
-166 -165
164 165 166
-167 -27
-167 -138
27 138 167
-168 -27
-168 -141
27 141 168
-169 -27
-169 -144
27 144 169
-170 -27
-170 145
27 -145 170
-171 -18
-171 117
18 -117 171
-172 8
-172 -171
-8 171 172
172
